50, 706
37, 47
32, 20
30, 3
49, 23
36, 31
50, 2
50, 15
36, 47
30, 1
42, 6
33, 19
47, 9
33, 6
30, 46
25, 47
37, 42
4, 38
1, 31
5, 28
5, 43
32, 38
9, 35
18, 9
50, 28
26, 4
37, 29
12, 24
14, 19
20, 12
48, 41
45, 44
22, 45
41, 33
48, 45
27, 24
42, 13
4, 43
23, 18
49, 50
29, 20
8, 40
33, 3
39, 43
25, 39
20, 47
6, 2
42, 7
3, 24
14, 4
14, 42
